% File represents an instance of a Composite Structure problem to be solved by a CP framework
% Created on 2025-03-26 10:42:12.376
T = 54;
n = 36;
m = 60;
edges = [(1, 2),
(7, 8),
(13, 14),
(20, 19),
(26, 25),
(32, 31),
(3, 2),
(9, 8),
(15, 14),
(21, 20),
(27, 26),
(33, 32),
(3, 4),
(9, 10),
(15, 16),
(21, 22),
(28, 27),
(34, 33),
(4, 5),
(10, 11),
(16, 17),
(22, 23),
(28, 29),
(34, 35),
(5, 6),
(11, 12),
(17, 18),
(23, 24),
(29, 30),
(35, 36),
(1, 7),
(13, 7),
(13, 19),
(19, 25),
(31, 25),
(2, 8),
(14, 8),
(20, 14),
(20, 26),
(32, 26),
(3, 9),
(15, 9),
(21, 15),
(21, 27),
(33, 27),
(4, 10),
(16, 10),
(22, 16),
(28, 22),
(34, 28),
(5, 11),
(17, 11),
(23, 17),
(29, 23),
(35, 29),
(6, 12),
(18, 12),
(24, 18),
(30, 24),
(36, 30)];
counts = [|8, 20, 8, 14,
|8, 14, 8, 14,
|8, 18, 8, 16,
|6, 18, 6, 14,
|6, 12, 6, 14,
|6, 10, 6, 14,
|8, 14, 8, 14,
|8, 14, 8, 10,
|8, 18, 8, 12,
|6, 18, 6, 10,
|6, 12, 6, 10,
|6, 10, 6, 10,
|8, 18, 8, 16,
|8, 18, 8, 12,
|8, 18, 8, 14,
|8, 18, 8, 10,
|6, 18, 6, 10,
|6, 12, 6, 10,
|8, 16, 8, 12,
|8, 20, 8, 12,
|8, 20, 8, 14,
|8, 20, 8, 10,
|6, 20, 6, 10,
|6, 18, 6, 10,
|8, 16, 8, 6,
|8, 20, 8, 6,
|8, 20, 8, 10,
|8, 24, 8, 12,
|8, 20, 8, 10,
|8, 18, 8, 10,
|8, 18, 8, 10,
|8, 20, 8, 12,
|8, 22, 8, 12,
|8, 26, 8, 12,
|8, 26, 8, 10,
|8, 24, 8, 10|];
